1111100 AB
324 340 356 372 388 403 418 433 447 461 475 490 505 524 543 562 582 608 635 662 689 710 731 753 775 793 811 829 847 869 891 913 935 956 977 999 1021 1044 1060 1076 1092 1108 1124 1140 1156 1172 1195 1218 1248 1278 1307 1333 1359 1385 1410 1436 21
1111100 AB red
595 1233 1263 1289 1300 46 71 96
1111100 BA red
308 324 340 356 376 421 449 829
0000011 AB
327 346 366 385 404 423 443 463 484 506 528 550 572 594 616 638 660 682 704 726 750 774 797 820 841 862 884 906 929 953 977 1000 1023 1044 1065 1086 1107 1134 1164 1194 1224 1254 1284 1311 1338 1365 1390 1415 0 25
0000011 AB red
1179 1327 50 75 100
0000011 BA red
311 330 350 369 551
